<number of tasks>
50

<cycle time>
1000

<order strength>
0.198


<task times>
1 113
2 233
3 316
4 226
5 186
6 143
7 56
8 113
9 182
10 72
11 48
12 80
13 370
14 133
15 104
16 92
17 171
18 45
19 213
20 274
21 101
22 223
23 264
24 150
25 132
26 189
27 68
28 264
29 62
30 305
31 229
32 115
33 299
34 55
35 137
36 283
37 177
38 68
39 58
40 98
41 90
42 93
43 78
44 146
45 253
46 164
47 44
48 158
49 41
50 164

<precedence relations>
1,16
2,11
2,12
3,13
3,16
3,21
4,9
7,8
7,10
7,14
7,15
8,16
9,16
10,16
11,17
12,18
13,20
14,19
15,21
15,22
16,23
16,24
16,25
16,26
17,27
18,29
19,28
22,30
22,31
23,35
25,36
25,37
27,32
28,34
29,33
32,40
33,38
34,39
35,41
35,42
38,43
39,43
41,44
41,45
44,48
44,49
44,50
45,46
45,47

<end>
